  9	56
 14
  0	 35	 20	 91	 56	 76	 23	112	 46	 79	102	 27	 83	113	
 16
  0	  2	 58	 16	 72	 54	 14	 24	110	 70	 80	  5	 48	104	 61	113	
 20
  0	 55	 28	 26	 49	 82	111	 43	 51	105	  7	107	 63	 10	 84	 66	 99	 31	 87	113	
 10
  0	 38	 42	 52	 98	108	 11	 94	 67	113	
 14
  0	 29	 19	 75	 45	 50	 33	101	 85	106	 32	 88	 89	113	
 14
  0	  4	 37	 15	 60	 36	 93	  3	 71	  8	 59	 64	 92	113	
 16
  0	 21	 17	 77	 34	 73	 39	  6	 95	  9	 62	 12	 68	 90	 65	113	
 14
  0	 18	 13	 74	 69	 25	  1	 41	 30	 81	 97	 86	 57	113	
 12
  0	 22	 53	 44	100	109	 78	 47	 40	 96	103	113	
